data;
param: ORDERS: orderLengths  orderNum  canBeRelaxed :=
	1	200		20		0
	2	200		38		1
    3	300		35		0
    4	375		24		0
    5	450		15		0
    6	500		10  	0;
	
param: STOCK: stockLengths stockNum stockCost :=
	1	1200 100 1
	2	1000 100 1;
	
param stockItemToRelax := 1;

param lfep :=
[1,1,1] 6, [1,2,1] 0, [1,3,1] 0, [1,4,1] 0, [1,5,1] 0, [1,6,1] 0,
[1,1,2] 0, [1,2,2] 6, [1,3,2] 0, [1,4,2] 0, [1,5,2] 0, [1,6,2] 0,
[1,1,3] 0, [1,2,3] 0, [1,3,3] 4, [1,4,3] 0, [1,5,3] 0, [1,6,3] 0,
[1,1,4] 0, [1,2,4] 0, [1,3,4] 0, [1,4,4] 3, [1,5,4] 0, [1,6,4] 0,
[1,1,5] 0, [1,2,5] 0, [1,3,5] 0, [1,4,5] 0, [1,5,5] 2, [1,6,5] 0,
[1,1,6] 0, [1,2,6] 0, [1,3,6] 0, [1,4,6] 0, [1,5,6] 0, [1,6,6] 2;
param rfep :=
[1,1,1] 0, [1,2,1] 0, [1,3,1] 0, [1,4,1] 0, [1,5,1] 0, [1,6,1] 0,
[1,1,2] 0, [1,2,2] 0, [1,3,2] 0, [1,4,2] 0, [1,5,2] 0, [1,6,2] 0,
[1,1,3] 0, [1,2,3] 0, [1,3,3] 0, [1,4,3] 0, [1,5,3] 0, [1,6,3] 0,
[1,1,4] 0, [1,2,4] 0, [1,3,4] 0, [1,4,4] 0, [1,5,4] 0, [1,6,4] 0,
[1,1,5] 0, [1,2,5] 0, [1,3,5] 0, [1,4,5] 0, [1,5,5] 0, [1,6,5] 0,
[1,1,6] 0, [1,2,6] 0, [1,3,6] 0, [1,4,6] 0, [1,5,6] 0, [1,6,6] 0;

param nPAT := [1] 6, [2] 0;
param prevStockLimit := [1] 0, [2] 0;
param price := .....